(set-logic QF_NRA)
(set-info :source |Benchmarks generated from hycomp (https://es-static.fbk.eu/tools/hycomp/). BMC instances of non-linear hybrid automata taken from: Alessandro Cimatti, Sergio Mover, Stefano Tonetta, A quantifier-free SMT encoding of non-linear hybrid automata, FMCAD 2012 and Alessandro Cimatti, Sergio Mover, Stefano Tonetta, Quantier-free encoding of invariants for Hybrid Systems, Formal Methods in System Design. This instance solves a BMC problem of depth 1 and uses the quantifier free encoding with lemmas encoding. Contacts: Sergio Mover (mover@fbk.eu), Stefano Tonetta (tonettas@fbk.eu), Alessandro Cimatti (cimatti@fbk.eu).|)
(set-info :smt-lib-version 2.0)
(set-info :category "industrial")
(set-info :status unsat)
;; MathSAT API call trace
;; generated on Mon Mar 19 10:48:14 2012
(declare-fun b.counter.3__AT1 () Bool)
(declare-fun b.delta__AT1 () Real)
(declare-fun b.EVENT.0__AT1 () Bool)
(declare-fun b.x__AT1 () Real)
(declare-fun b.EVENT.1__AT1 () Bool)
(declare-fun b.event_is_timed__AT0 () Bool)
(declare-fun b.y__AT0 () Real)
(declare-fun b.counter.0__AT0 () Bool)
(declare-fun b.counter.1__AT0 () Bool)
(declare-fun b.EVENT.0__AT0 () Bool)
(declare-fun b.bool_atom__AT0 () Bool)
(declare-fun b.counter.2__AT0 () Bool)
(declare-fun b.speed_y__AT1 () Real)
(declare-fun b.event_is_timed__AT1 () Bool)
(declare-fun b.x__AT0 () Real)
(declare-fun b.time__AT1 () Real)
(declare-fun b.bool_atom__AT1 () Bool)
(declare-fun b.g__AT0 () Real)
(declare-fun b.EVENT.1__AT0 () Bool)
(declare-fun b.time__AT0 () Real)
(declare-fun b.delta__AT0 () Real)
(declare-fun b.counter.3__AT0 () Bool)
(declare-fun b.speed_y__AT0 () Real)
(declare-fun b.y__AT1 () Real)
(declare-fun b.counter.0__AT1 () Bool)
(declare-fun b.counter.1__AT1 () Bool)
(declare-fun b.counter.2__AT1 () Bool)
(assert (let ((.def_65 (* (- 1.0) b.g__AT0)))
(let ((.def_68 (* (/ 1 2) .def_65)))
(let ((.def_80 (* 2.0 .def_68)))
(let ((.def_124 (* (- 1.0) .def_80)))
(let ((.def_349 (* .def_124 b.delta__AT1)))
(let ((.def_352 (<= .def_349 b.speed_y__AT1)))
(let ((.def_359 (not .def_352)))
(let ((.def_312 (<= 0.0 b.speed_y__AT1)))
(let ((.def_360 (or .def_312 .def_359)))
(let ((.def_350 (<= b.speed_y__AT1 .def_349)))
(let ((.def_326 (<= b.speed_y__AT1 0.0 )))
(let ((.def_327 (not .def_326)))
(let ((.def_358 (or .def_327 .def_350)))
(let ((.def_361 (and .def_358 .def_360)))
(let ((.def_115 (<= b.g__AT0 0.0 )))
(let ((.def_362 (or .def_115 .def_361)))
(let ((.def_354 (not .def_350)))
(let ((.def_355 (or .def_326 .def_354)))
(let ((.def_313 (not .def_312)))
(let ((.def_353 (or .def_313 .def_352)))
(let ((.def_356 (and .def_353 .def_355)))
(let ((.def_120 (<= 0.0 b.g__AT0)))
(let ((.def_357 (or .def_120 .def_356)))
(let ((.def_363 (and .def_357 .def_362)))
(let ((.def_351 (and .def_326 .def_350)))
(let ((.def_364 (and .def_351 .def_363)))
(let ((.def_308 (* .def_80 b.delta__AT1)))
(let ((.def_309 (+ b.speed_y__AT1 .def_308)))
(let ((.def_324 (<= .def_309 0.0 )))
(let ((.def_325 (not .def_324)))
(let ((.def_344 (or .def_325 .def_326)))
(let ((.def_310 (<= 0.0 .def_309)))
(let ((.def_343 (or .def_310 .def_313)))
(let ((.def_345 (and .def_343 .def_344)))
(let ((.def_346 (or .def_120 .def_345)))
(let ((.def_311 (not .def_310)))
(let ((.def_340 (or .def_311 .def_312)))
(let ((.def_339 (or .def_324 .def_327)))
(let ((.def_341 (and .def_339 .def_340)))
(let ((.def_342 (or .def_115 .def_341)))
(let ((.def_347 (and .def_342 .def_346)))
(let ((.def_338 (and .def_310 .def_312)))
(let ((.def_348 (and .def_338 .def_347)))
(let ((.def_365 (or .def_348 .def_364)))
(let ((.def_299 (* b.speed_y__AT1 b.delta__AT1)))
(let ((.def_297 (* b.delta__AT1 b.delta__AT1)))
(let ((.def_298 (* .def_68 .def_297)))
(let ((.def_300 (+ .def_298 .def_299)))
(let ((.def_288 (* (- 1.0) b.x__AT1)))
(let ((.def_289 (* b.x__AT1 .def_288)))
(let ((.def_301 (* (- 1.0) .def_289)))
(let ((.def_304 (+ .def_301 .def_300)))
(let ((.def_305 (+ b.y__AT1 .def_304)))
(let ((.def_318 (<= .def_305 0.0 )))
(let ((.def_332 (not .def_318)))
(let ((.def_316 (<= b.y__AT1 .def_289)))
(let ((.def_333 (or .def_316 .def_332)))
(let ((.def_290 (<= .def_289 b.y__AT1)))
(let ((.def_330 (not .def_290)))
(let ((.def_306 (<= 0.0 .def_305)))
(let ((.def_331 (or .def_306 .def_330)))
(let ((.def_334 (and .def_331 .def_333)))
(let ((.def_328 (or .def_325 .def_327)))
(let ((.def_329 (not .def_328)))
(let ((.def_335 (or .def_329 .def_334)))
(let ((.def_320 (not .def_306)))
(let ((.def_321 (or .def_290 .def_320)))
(let ((.def_317 (not .def_316)))
(let ((.def_319 (or .def_317 .def_318)))
(let ((.def_322 (and .def_319 .def_321)))
(let ((.def_314 (or .def_311 .def_313)))
(let ((.def_315 (not .def_314)))
(let ((.def_323 (or .def_315 .def_322)))
(let ((.def_336 (and .def_323 .def_335)))
(let ((.def_307 (and .def_290 .def_306)))
(let ((.def_337 (and .def_307 .def_336)))
(let ((.def_366 (and .def_337 .def_365)))
(let ((.def_57 (<= b.g__AT0 10.0 )))
(let ((.def_56 (<= 8.0 b.g__AT0)))
(let ((.def_58 (and .def_56 .def_57)))
(let ((.def_367 (and .def_58 .def_366)))
(let ((.def_291 (and .def_58 .def_290)))
(let ((.def_285 (not b.EVENT.0__AT1)))
(let ((.def_283 (not b.EVENT.1__AT1)))
(let ((.def_286 (or .def_283 .def_285)))
(let ((.def_6 (not b.counter.0__AT1)))
(let ((.def_4 (not b.counter.1__AT1)))
(let ((.def_276 (or .def_4 .def_6)))
(let ((.def_280 (or b.counter.3__AT1 .def_276)))
(let ((.def_277 (or b.counter.2__AT1 .def_276)))
(let ((.def_9 (not b.counter.2__AT1)))
(let ((.def_275 (or .def_6 .def_9)))
(let ((.def_278 (and .def_275 .def_277)))
(let ((.def_215 (not b.counter.3__AT1)))
(let ((.def_279 (or .def_215 .def_278)))
(let ((.def_281 (and .def_279 .def_280)))
(let ((.def_287 (and .def_281 .def_286)))
(let ((.def_292 (and .def_287 .def_291)))
(let ((.def_270 (<= 0.0 b.delta__AT0)))
(let ((.def_46 (not b.EVENT.0__AT0)))
(let ((.def_44 (not b.EVENT.1__AT0)))
(let ((.def_145 (and .def_44 .def_46)))
(let ((.def_147 (not .def_145)))
(let ((.def_271 (or .def_147 .def_270)))
(let ((.def_272 (or b.EVENT.1__AT0 .def_271)))
(let ((.def_184 (= b.bool_atom__AT0 b.bool_atom__AT1)))
(let ((.def_179 (= b.counter.0__AT1 b.counter.0__AT0)))
(let ((.def_177 (= b.counter.1__AT1 b.counter.1__AT0)))
(let ((.def_175 (= b.counter.2__AT1 b.counter.2__AT0)))
(let ((.def_174 (= b.counter.3__AT0 b.counter.3__AT1)))
(let ((.def_176 (and .def_174 .def_175)))
(let ((.def_178 (and .def_176 .def_177)))
(let ((.def_180 (and .def_178 .def_179)))
(let ((.def_266 (and .def_180 .def_184)))
(let ((.def_267 (or .def_147 .def_266)))
(let ((.def_268 (or b.EVENT.1__AT0 .def_267)))
(let ((.def_255 (* b.delta__AT0 .def_65)))
(let ((.def_256 (* (- 1.0) b.speed_y__AT1)))
(let ((.def_259 (+ .def_256 .def_255)))
(let ((.def_260 (+ b.speed_y__AT0 .def_259)))
(let ((.def_261 (= .def_260 0.0 )))
(let ((.def_247 (* (- 1.0) b.y__AT1)))
(let ((.def_71 (* b.delta__AT0 b.speed_y__AT0)))
(let ((.def_250 (+ .def_71 .def_247)))
(let ((.def_64 (* b.delta__AT0 b.delta__AT0)))
(let ((.def_69 (* .def_64 .def_68)))
(let ((.def_251 (+ .def_69 .def_250)))
(let ((.def_252 (+ b.y__AT0 .def_251)))
(let ((.def_253 (= .def_252 0.0 )))
(let ((.def_165 (= b.x__AT0 b.x__AT1)))
(let ((.def_254 (and .def_165 .def_253)))
(let ((.def_262 (and .def_254 .def_261)))
(let ((.def_263 (or .def_147 .def_262)))
(let ((.def_168 (= b.y__AT0 b.y__AT1)))
(let ((.def_242 (and .def_165 .def_168)))
(let ((.def_171 (= b.speed_y__AT0 b.speed_y__AT1)))
(let ((.def_243 (and .def_171 .def_242)))
(let ((.def_239 (= b.delta__AT0 0.0 )))
(let ((.def_240 (and .def_145 .def_239)))
(let ((.def_241 (not .def_240)))
(let ((.def_244 (or .def_241 .def_243)))
(let ((.def_245 (or b.EVENT.1__AT0 .def_244)))
(let ((.def_232 (and .def_171 .def_180)))
(let ((.def_233 (or b.bool_atom__AT0 .def_232)))
(let ((.def_207 (or .def_6 b.counter.0__AT0)))
(let ((.def_27 (not b.counter.0__AT0)))
(let ((.def_206 (or b.counter.0__AT1 .def_27)))
(let ((.def_208 (and .def_206 .def_207)))
(let ((.def_209 (and .def_4 .def_208)))
(let ((.def_210 (or b.counter.1__AT0 .def_209)))
(let ((.def_25 (not b.counter.1__AT0)))
(let ((.def_205 (or b.counter.1__AT1 .def_25)))
(let ((.def_211 (and .def_205 .def_210)))
(let ((.def_223 (and .def_9 .def_211)))
(let ((.def_224 (or b.counter.2__AT0 .def_223)))
(let ((.def_218 (and .def_4 .def_27)))
(let ((.def_219 (or b.counter.1__AT0 .def_218)))
(let ((.def_220 (and .def_205 .def_219)))
(let ((.def_221 (and b.counter.2__AT1 .def_220)))
(let ((.def_30 (not b.counter.2__AT0)))
(let ((.def_222 (or .def_30 .def_221)))
(let ((.def_225 (and .def_222 .def_224)))
(let ((.def_226 (and b.counter.3__AT1 .def_225)))
(let ((.def_227 (or b.counter.3__AT0 .def_226)))
(let ((.def_212 (and b.counter.2__AT1 .def_211)))
(let ((.def_213 (or b.counter.2__AT0 .def_212)))
(let ((.def_201 (or b.counter.1__AT1 b.counter.1__AT0)))
(let ((.def_199 (and .def_4 b.counter.0__AT1)))
(let ((.def_200 (or .def_25 .def_199)))
(let ((.def_202 (and .def_200 .def_201)))
(let ((.def_203 (and .def_9 .def_202)))
(let ((.def_204 (or .def_30 .def_203)))
(let ((.def_214 (and .def_204 .def_213)))
(let ((.def_216 (and .def_214 .def_215)))
(let ((.def_33 (not b.counter.3__AT0)))
(let ((.def_217 (or .def_33 .def_216)))
(let ((.def_228 (and .def_217 .def_227)))
(let ((.def_196 (* b.speed_y__AT0 b.speed_y__AT0)))
(let ((.def_195 (* b.speed_y__AT1 b.speed_y__AT1)))
(let ((.def_197 (= .def_195 .def_196)))
(let ((.def_193 (+ b.speed_y__AT0 b.speed_y__AT1)))
(let ((.def_194 (= .def_193 0.0 )))
(let ((.def_198 (and .def_194 .def_197)))
(let ((.def_229 (and .def_198 .def_228)))
(let ((.def_192 (not b.bool_atom__AT0)))
(let ((.def_230 (or .def_192 .def_229)))
(let ((.def_51 (* (- 1.0) b.x__AT0)))
(let ((.def_52 (* b.x__AT0 .def_51)))
(let ((.def_189 (= b.y__AT0 .def_52)))
(let ((.def_85 (<= 0.0 b.speed_y__AT0)))
(let ((.def_86 (not .def_85)))
(let ((.def_190 (and .def_86 .def_189)))
(let ((.def_191 (= b.bool_atom__AT0 .def_190)))
(let ((.def_231 (and .def_191 .def_230)))
(let ((.def_234 (and .def_231 .def_233)))
(let ((.def_235 (and .def_165 .def_234)))
(let ((.def_236 (and .def_168 .def_235)))
(let ((.def_237 (or .def_145 .def_236)))
(let ((.def_238 (or b.EVENT.1__AT0 .def_237)))
(let ((.def_246 (and .def_238 .def_245)))
(let ((.def_264 (and .def_246 .def_263)))
(let ((.def_152 (= b.time__AT0 b.time__AT1)))
(let ((.def_166 (and .def_152 .def_165)))
(let ((.def_169 (and .def_166 .def_168)))
(let ((.def_172 (and .def_169 .def_171)))
(let ((.def_181 (and .def_172 .def_180)))
(let ((.def_185 (and .def_181 .def_184)))
(let ((.def_186 (or .def_44 .def_185)))
(let ((.def_155 (* (- 1.0) b.time__AT1)))
(let ((.def_158 (+ b.delta__AT0 .def_155)))
(let ((.def_159 (+ b.time__AT0 .def_158)))
(let ((.def_160 (= .def_159 0.0 )))
(let ((.def_161 (or .def_147 .def_160)))
(let ((.def_162 (or b.EVENT.1__AT0 .def_161)))
(let ((.def_153 (or .def_145 .def_152)))
(let ((.def_154 (or b.EVENT.1__AT0 .def_153)))
(let ((.def_163 (and .def_154 .def_162)))
(let ((.def_187 (and .def_163 .def_186)))
(let ((.def_149 (= .def_147 b.event_is_timed__AT1)))
(let ((.def_146 (= b.event_is_timed__AT0 .def_145)))
(let ((.def_150 (and .def_146 .def_149)))
(let ((.def_188 (and .def_150 .def_187)))
(let ((.def_265 (and .def_188 .def_264)))
(let ((.def_269 (and .def_265 .def_268)))
(let ((.def_273 (and .def_269 .def_272)))
(let ((.def_274 (and .def_44 .def_273)))
(let ((.def_293 (and .def_274 .def_292)))
(let ((.def_28 (and .def_25 .def_27)))
(let ((.def_31 (and .def_28 .def_30)))
(let ((.def_294 (and .def_31 .def_293)))
(let ((.def_125 (* b.delta__AT0 .def_124)))
(let ((.def_128 (<= .def_125 b.speed_y__AT0)))
(let ((.def_135 (not .def_128)))
(let ((.def_136 (or .def_85 .def_135)))
(let ((.def_126 (<= b.speed_y__AT0 .def_125)))
(let ((.def_99 (<= b.speed_y__AT0 0.0 )))
(let ((.def_100 (not .def_99)))
(let ((.def_134 (or .def_100 .def_126)))
(let ((.def_137 (and .def_134 .def_136)))
(let ((.def_138 (or .def_115 .def_137)))
(let ((.def_130 (not .def_126)))
(let ((.def_131 (or .def_99 .def_130)))
(let ((.def_129 (or .def_86 .def_128)))
(let ((.def_132 (and .def_129 .def_131)))
(let ((.def_133 (or .def_120 .def_132)))
(let ((.def_139 (and .def_133 .def_138)))
(let ((.def_127 (and .def_99 .def_126)))
(let ((.def_140 (and .def_127 .def_139)))
(let ((.def_81 (* b.delta__AT0 .def_80)))
(let ((.def_82 (+ b.speed_y__AT0 .def_81)))
(let ((.def_97 (<= .def_82 0.0 )))
(let ((.def_98 (not .def_97)))
(let ((.def_118 (or .def_98 .def_99)))
(let ((.def_83 (<= 0.0 .def_82)))
(let ((.def_117 (or .def_83 .def_86)))
(let ((.def_119 (and .def_117 .def_118)))
(let ((.def_121 (or .def_119 .def_120)))
(let ((.def_84 (not .def_83)))
(let ((.def_113 (or .def_84 .def_85)))
(let ((.def_112 (or .def_97 .def_100)))
(let ((.def_114 (and .def_112 .def_113)))
(let ((.def_116 (or .def_114 .def_115)))
(let ((.def_122 (and .def_116 .def_121)))
(let ((.def_111 (and .def_83 .def_85)))
(let ((.def_123 (and .def_111 .def_122)))
(let ((.def_141 (or .def_123 .def_140)))
(let ((.def_72 (+ .def_69 .def_71)))
(let ((.def_73 (* (- 1.0) .def_52)))
(let ((.def_76 (+ .def_73 .def_72)))
(let ((.def_77 (+ b.y__AT0 .def_76)))
(let ((.def_91 (<= .def_77 0.0 )))
(let ((.def_105 (not .def_91)))
(let ((.def_89 (<= b.y__AT0 .def_52)))
(let ((.def_106 (or .def_89 .def_105)))
(let ((.def_53 (<= .def_52 b.y__AT0)))
(let ((.def_103 (not .def_53)))
(let ((.def_78 (<= 0.0 .def_77)))
(let ((.def_104 (or .def_78 .def_103)))
(let ((.def_107 (and .def_104 .def_106)))
(let ((.def_101 (or .def_98 .def_100)))
(let ((.def_102 (not .def_101)))
(let ((.def_108 (or .def_102 .def_107)))
(let ((.def_93 (not .def_78)))
(let ((.def_94 (or .def_53 .def_93)))
(let ((.def_90 (not .def_89)))
(let ((.def_92 (or .def_90 .def_91)))
(let ((.def_95 (and .def_92 .def_94)))
(let ((.def_87 (or .def_84 .def_86)))
(let ((.def_88 (not .def_87)))
(let ((.def_96 (or .def_88 .def_95)))
(let ((.def_109 (and .def_96 .def_108)))
(let ((.def_79 (and .def_53 .def_78)))
(let ((.def_110 (and .def_79 .def_109)))
(let ((.def_142 (and .def_110 .def_141)))
(let ((.def_143 (and .def_58 .def_142)))
(let ((.def_59 (and .def_53 .def_58)))
(let ((.def_47 (or .def_44 .def_46)))
(let ((.def_37 (or .def_25 .def_27)))
(let ((.def_41 (or b.counter.3__AT0 .def_37)))
(let ((.def_38 (or b.counter.2__AT0 .def_37)))
(let ((.def_36 (or .def_27 .def_30)))
(let ((.def_39 (and .def_36 .def_38)))
(let ((.def_40 (or .def_33 .def_39)))
(let ((.def_42 (and .def_40 .def_41)))
(let ((.def_48 (and .def_42 .def_47)))
(let ((.def_60 (and .def_48 .def_59)))
(let ((.def_34 (and .def_31 .def_33)))
(let ((.def_22 (= b.y__AT0 10.0 )))
(let ((.def_18 (= b.x__AT0 0.0 )))
(let ((.def_14 (= b.time__AT0 0.0 )))
(let ((.def_16 (and .def_14 b.event_is_timed__AT0)))
(let ((.def_19 (and .def_16 .def_18)))
(let ((.def_23 (and .def_19 .def_22)))
(let ((.def_35 (and .def_23 .def_34)))
(let ((.def_61 (and .def_35 .def_60)))
(let ((.def_7 (and .def_4 .def_6)))
(let ((.def_10 (and .def_7 .def_9)))
(let ((.def_11 (not .def_10)))
(let ((.def_62 (and .def_11 .def_61)))
(let ((.def_144 (and .def_62 .def_143)))
(let ((.def_295 (and .def_144 .def_294)))
(let ((.def_368 (and .def_295 .def_367)))
.def_368)))))))))))))))))))))))))))))))))))))))))))))))))))))))))))))))))))))))))))))))))))))))))))))))))))))))))))))))))))))))))))))))))))))))))))))))))))))))))))))))))))))))))))))))))))))))))))))))))))))))))))))))))))))))))))))))))))))))))))))))))))))))))))))))))))))))))))))))))))))))))))))))))))))))))))))))))))))))))))))))))))
(check-sat)
(exit)
